c Recherche de k-clique
c
c k = 4
c Graphe :
c V = {a,b,c,d,e,f,g}
c E = {{a,b}, {a,c}, {a,d}, {a,f}, {b,c}, {b,e}, {b,g}, {c,d}, {c,e},
c      {d,e}, {d,f}, {d,g}, {e,f}, {e,g}, {f,g}}
c
c Propositions :
c  1 {a,1}
c  2 {a,2}
c  3 {a,3}
c  4 {a,4}
c  5 {b,1}
c  6 {b,2}
c  7 {b,3}
c  8 {b,4}
c  9 {c,1}
c 10 {c,2}
c 11 {c,3}
c 12 {c,4}
c 13 {d,1}
c 14 {d,2}
c 15 {d,3}
c 16 {d,4}
c 17 {e,1}
c 18 {e,2}
c 19 {e,3}
c 20 {e,4}
c 21 {f,1}
c 22 {f,2}
c 23 {f,3}
c 24 {f,4}
c 25 {g,1}
c 26 {g,2}
c 27 {g,3}
c 28 {g,4}
c
c Solution trouvée par minisat : 14 19 24 25, c-à-d. les sommets {g, d, e, f}
c
p cnf 28 142
c Au moins un sommet par entier 1≤i≤4 ; 4 clauses
1 5  9 13 17 21 25 0
2 6 10 14 18 22 26 0
3 7 11 15 19 23 27 0
4 8 12 16 20 24 28 0
c au plus un entier 1≤i≤4 par sommet ; 42 clauses
c pour a
-1 -2 0
-1 -3 0
-1 -4 0
-2 -3 0
-2 -4 0
-3 -4 0
c pour b
-5 -6 0
-5 -7 0
-5 -8 0
-6 -7 0
-6 -8 0
-7 -8 0
c pour c
-9 -10 0
-9 -11 0
-9 -12 0
-10 -11 0
-10 -12 0
-11 -12 0
c pour d
-13 -14 0
-13 -15 0
-13 -16 0
-14 -15 0
-14 -16 0
-15 -16 0
c pour e
-17 -18 0
-17 -19 0
-17 -20 0
-18 -19 0
-18 -20 0
-19 -20 0
c pour f
-21 -22 0
-21 -23 0
-21 -24 0
-22 -23 0
-22 -24 0
-23 -24 0
c pour g
-25 -26 0
-25 -27 0
-25 -28 0
-26 -27 0
-26 -28 0
-27 -28 0
c pour chaque paire de sommets non adjacents dans
c Ē = {{a,e}, {a,g}, {b,d}, {b,f}, {c,f}, {c,g}}
c on n'a pas sélectionné les deux sommets ; 96 clauses
c Pour {a,e}
-1 -17 0
-1 -18 0
-1 -19 0
-1 -20 0
-2 -17 0
-2 -18 0
-2 -19 0
-2 -20 0
-3 -17 0
-3 -18 0
-3 -19 0
-3 -20 0
-4 -17 0
-4 -18 0
-4 -19 0
-4 -20 0
c Pour {a,g}
-1 -25 0
-1 -26 0
-1 -27 0
-1 -28 0
-2 -25 0
-2 -26 0
-2 -27 0
-2 -28 0
-3 -25 0
-3 -26 0
-3 -27 0
-3 -28 0
-4 -25 0
-4 -26 0
-4 -27 0
-4 -28 0
c Pour {b,d}
-5 -13 0
-5 -14 0
-5 -15 0
-5 -16 0
-6 -13 0
-6 -14 0
-6 -15 0
-6 -16 0
-7 -13 0
-7 -14 0
-7 -15 0
-7 -16 0
-8 -13 0
-8 -14 0
-8 -15 0
-8 -16 0
c Pour {b,f}
-5 -21 0
-5 -22 0
-5 -23 0
-5 -24 0
-6 -21 0
-6 -22 0
-6 -23 0
-6 -24 0
-7 -21 0
-7 -22 0
-7 -23 0
-7 -24 0
-8 -21 0
-8 -22 0
-8 -23 0
-8 -24 0
c Pour {c,f}
-9 -21 0
-9 -22 0
-9 -23 0
-9 -24 0
-10 -21 0
-10 -22 0
-10 -23 0
-10 -24 0
-11 -21 0
-11 -22 0
-11 -23 0
-11 -24 0
-12 -21 0
-12 -22 0
-12 -23 0
-12 -24 0
c Pour {c,g}
-9 -25 0
-9 -26 0
-9 -27 0
-9 -28 0
-10 -25 0
-10 -26 0
-10 -27 0
-10 -28 0
-11 -25 0
-11 -26 0
-11 -27 0
-11 -28 0
-12 -25 0
-12 -26 0
-12 -27 0
-12 -28 0

